c This is a random SAT instance with 10 variables and 20 clauses
p cnf 10 20
10 -9 -4 3 -8 5 -10 6 1 4 0
10 6 -7 1 0
3 -1 2 -4 1 0
-1 9 -3 8 10 -6 7 -2 0
-10 -3 4 7 9 0
-2 -5 -9 7 0
10 -10 2 6 9 -6 8 0
2 10 -9 -8 -7 -2 -6 0
-6 1 4 -1 2 -10 8 -9 -8 7 0
-8 6 10 4 0
-9 -5 4 -2 3 0
2 3 4 -8 5 6 0
9 0
-2 10 4 -1 6 0
2 3 0
-4 -5 9 -2 -1 10 -10 2 0
6 2 -2 0
8 2 -2 0
-10 7 8 10 4 5 -9 -5 2 6 0
-5 -1 -10 0